
Gurobi 10.0.3 (linux64, gurobi_cl) logging started Thu Nov  2 11:34:05 2023

Set parameter Username
Set parameter TimeLimit to value 3600
Set parameter LogFile to value "RCPSP_365.log"
Set parameter Threads to value 32
Academic license - for non-commercial use only - expires 2024-10-30
Using license file /home/jrivera6/gurobi-licenses/v1003/compute-0-35/gurobi.lic

Gurobi Optimizer version 10.0.3 build v10.0.3rc0 (linux64)
Copyright (c) 2023, Gurobi Optimization, LLC

Read MPS format model from file RCPSP_365.mps
Reading time = 0.01 seconds
RCPSP_365: 5349 rows, 2080 columns, 17064 nonzeros

CPU model: Intel(R) Xeon(R) Gold 6130 CPU @ 2.10GHz, instruction set [SSE2|AVX|AVX2|AVX512]
Thread count: 32 physical cores, 32 logical processors, using up to 32 threads

Optimize a model with 5349 rows, 2080 columns and 17064 nonzeros
Model fingerprint: 0x690e8533
Variable types: 32 continuous, 2048 integer (2048 binary)
Coefficient statistics:
  Matrix range     [1e+00, 2e+02]
  Objective range  [1e+00, 1e+00]
  Bounds range     [1e+00, 1e+00]
  RHS range        [1e+00, 2e+02]
Presolve removed 3610 rows and 1443 columns
Presolve time: 0.25s
Presolved: 1739 rows, 637 columns, 5271 nonzeros
Variable types: 31 continuous, 606 integer (606 binary)

Root relaxation: objective 6.300000e+01, 218 iterations, 0.00 seconds (0.00 work units)

    Nodes    |    Current Node    |     Objective Bounds      |     Work
 Expl Unexpl |  Obj  Depth IntInf | Incumbent    BestBd   Gap | It/Node Time

     0     0   63.00000    0   20          -   63.00000      -     -    0s
     0     0   63.00000    0   79          -   63.00000      -     -    0s
     0     0   63.00000    0   77          -   63.00000      -     -    0s
     0     0   64.80000    0   52          -   64.80000      -     -    1s
     0     0   65.27160    0   50          -   65.27160      -     -    1s
     0     0   66.27160    0   71          -   66.27160      -     -    1s
     0     0   66.27160    0   68          -   66.27160      -     -    1s
     0     0   66.55183    0   76          -   66.55183      -     -    1s
     0     0   66.55183    0   67          -   66.55183      -     -    1s
H    0     0                      95.0000000   67.54067  28.9%     -    1s
     0     0   67.54067    0   73   95.00000   67.54067  28.9%     -    1s
     0     0   67.54109    0   86   95.00000   67.54109  28.9%     -    1s
H    0     0                      94.0000000   67.54109  28.1%     -    1s
     0     0   67.55330    0  107   94.00000   67.55330  28.1%     -    1s
     0     0   67.64374    0   79   94.00000   67.64374  28.0%     -    1s
     0     0   67.64374    0   69   94.00000   67.64374  28.0%     -    1s
     0     0   68.44970    0   64   94.00000   68.44970  27.2%     -    1s
H    0     0                      93.0000000   68.44970  26.4%     -    1s
H    0     0                      85.0000000   68.78003  19.1%     -    1s
     0     0   68.78003    0   76   85.00000   68.78003  19.1%     -    1s
     0     0   68.78003    0   71   85.00000   68.78003  19.1%     -    1s
     0     0   68.78003    0   83   85.00000   68.78003  19.1%     -    2s
     0     0   68.78003    0   81   85.00000   68.78003  19.1%     -    2s
     0     0   68.78003    0   95   85.00000   68.78003  19.1%     -    2s
     0     0   69.02864    0   74   85.00000   69.02864  18.8%     -    2s
     0     0   69.02864    0   75   85.00000   69.02864  18.8%     -    2s
H    0     0                      84.0000000   69.02864  17.8%     -    2s
H    0     0                      82.0000000   69.02864  15.8%     -    2s
     0     0   69.02864    0   77   82.00000   69.02864  15.8%     -    2s
     0     0   69.02864    0   81   82.00000   69.02864  15.8%     -    2s
     0     0   69.02864    0   29   82.00000   69.02864  15.8%     -    2s
     0     0   69.03637    0   46   82.00000   69.03637  15.8%     -    2s
     0     0   69.03637    0   62   82.00000   69.03637  15.8%     -    3s
     0     0   69.03637    0   59   82.00000   69.03637  15.8%     -    3s
H    0     0                      81.0000000   69.03637  14.8%     -    3s
     0     0   69.03637    0   38   81.00000   69.03637  14.8%     -    3s
     0     0   69.03637    0   38   81.00000   69.03637  14.8%     -    3s
     0     0   69.03637    0   45   81.00000   69.03637  14.8%     -    3s
     0     0   69.03637    0   45   81.00000   69.03637  14.8%     -    3s
     0     0   69.09136    0   89   81.00000   69.09136  14.7%     -    3s
     0     0   69.09136    0   85   81.00000   69.09136  14.7%     -    3s
     0     0   69.09136    0   86   81.00000   69.09136  14.7%     -    3s
     0     0   69.12262    0   87   81.00000   69.12262  14.7%     -    3s
     0     0   69.12262    0   68   81.00000   69.12262  14.7%     -    3s
     0     0   69.12262    0   87   81.00000   69.12262  14.7%     -    3s
     0     0   69.12262    0   83   81.00000   69.12262  14.7%     -    3s
     0     0   69.12262    0   71   81.00000   69.12262  14.7%     -    4s
     0     0   69.12262    0   41   81.00000   69.12262  14.7%     -    4s
     0     0   69.12262    0   69   81.00000   69.12262  14.7%     -    4s
     0     0   69.12262    0   35   81.00000   69.12262  14.7%     -    4s
     0     0   69.12262    0   88   81.00000   69.12262  14.7%     -    4s
     0     0   69.12262    0   74   81.00000   69.12262  14.7%     -    4s
     0     0   69.12262    0   74   81.00000   69.12262  14.7%     -    4s
     0     0   70.74903    0   27   81.00000   70.74903  12.7%     -    5s
     0     0   76.41878    0   21   81.00000   76.41878  5.66%     -    7s
H    0     0                      79.0000000   76.41878  3.27%     -    7s
     0     0   76.51026    0   71   79.00000   76.51026  3.15%     -    8s
     0     0   78.00000    0   67   79.00000   78.00000  1.27%     -    8s
     0     0   78.00000    0   54   79.00000   78.00000  1.27%     -    8s

Cutting planes:
  Cover: 2
  Clique: 9
  MIR: 3
  RLT: 1
  Relax-and-lift: 1

Explored 1 nodes (11557 simplex iterations) in 8.85 seconds (0.92 work units)
Thread count was 32 (of 32 available processors)

Solution count 8: 79 81 82 ... 95

Optimal solution found (tolerance 1.00e-04)
Best objective 7.900000000000e+01, best bound 7.900000000000e+01, gap 0.0000%

Wrote result file 'RCPSP_365.sol'

